objective value:                                    0
y_4                                                 1 	(obj:0)
y_10                                                1 	(obj:0)
x_1                                                 6 	(obj:0)
x_2                                                 3 	(obj:0)
x_3                                                 5 	(obj:0)
x_4                                                 1 	(obj:0)
x_5                                                 5 	(obj:0)
x_6                                                 6 	(obj:0)
x_7                                                 2 	(obj:0)
x_8                                                 5 	(obj:0)
x_9                                                 5 	(obj:0)
x_10                                                1 	(obj:0)
x_11                                                4 	(obj:0)
x_12                                                6 	(obj:0)
x_13                                                4 	(obj:0)
x_14                                                4 	(obj:0)
x_0                                                 3 	(obj:0)
